(set-info :smt-lib-version 2.6)
(set-logic UF)
(set-info :source |Benchmarks from the paper: "Extending Sledgehammer with SMT Solvers" by Jasmin Blanchette, Sascha Bohme, and Lawrence C. Paulson, CADE 2011.  Translated to SMT2 by Andrew Reynolds and Morgan Deters.|)
(set-info :category "industrial")
(set-info :status sat)
(declare-sort S1 0)
(declare-sort S2 0)
(declare-sort S3 0)
(declare-sort S4 0)
(declare-sort S5 0)
(declare-sort S6 0)
(declare-sort S7 0)
(declare-sort S8 0)
(declare-sort S9 0)
(declare-sort S10 0)
(declare-sort S11 0)
(declare-sort S12 0)
(declare-sort S13 0)
(declare-sort S14 0)
(declare-sort S15 0)
(declare-sort S16 0)
(declare-sort S17 0)
(declare-sort S18 0)
(declare-sort S19 0)
(declare-sort S20 0)
(declare-sort S21 0)
(declare-sort S22 0)
(declare-sort S23 0)
(declare-sort S24 0)
(declare-sort S25 0)
(declare-sort S26 0)
(declare-sort S27 0)
(declare-sort S28 0)
(declare-sort S29 0)
(declare-sort S30 0)
(declare-sort S31 0)
(declare-sort S32 0)
(declare-sort S33 0)
(declare-sort S34 0)
(declare-sort S35 0)
(declare-sort S36 0)
(declare-sort S37 0)
(declare-sort S38 0)
(declare-sort S39 0)
(declare-sort S40 0)
(declare-sort S41 0)
(declare-sort S42 0)
(declare-sort S43 0)
(declare-sort S44 0)
(declare-sort S45 0)
(declare-sort S46 0)
(declare-sort S47 0)
(declare-sort S48 0)
(declare-sort S49 0)
(declare-sort S50 0)
(declare-sort S51 0)
(declare-sort S52 0)
(declare-sort S53 0)
(declare-sort S54 0)
(declare-sort S55 0)
(declare-sort S56 0)
(declare-sort S57 0)
(declare-sort S58 0)
(declare-sort S59 0)
(declare-sort S60 0)
(declare-sort S61 0)
(declare-sort S62 0)
(declare-sort S63 0)
(declare-sort S64 0)
(declare-sort S65 0)
(declare-sort S66 0)
(declare-fun f1 () S1)
(declare-fun f2 () S1)
(declare-fun f3 (S4 S3) S1)
(declare-fun f4 (S5 S2) S4)
(declare-fun f5 () S5)
(declare-fun f6 (S6 S7) S1)
(declare-fun f7 (S8 S2) S6)
(declare-fun f8 () S8)
(declare-fun f9 (S9 S10) S2)
(declare-fun f10 () S9)
(declare-fun f11 () S10)
(declare-fun f12 (S11 S7) S7)
(declare-fun f13 (S12 S2) S11)
(declare-fun f14 () S12)
(declare-fun f15 () S2)
(declare-fun f16 (S13 S2) S2)
(declare-fun f17 () S13)
(declare-fun f18 () S2)
(declare-fun f19 () S7)
(declare-fun f20 (S14 S10) S1)
(declare-fun f21 (S15 S14) S14)
(declare-fun f22 () S15)
(declare-fun f23 (S16 S10) S15)
(declare-fun f24 () S16)
(declare-fun f25 () S14)
(declare-fun f26 (S7 S2) S1)
(declare-fun f27 () S11)
(declare-fun f28 (S17 S10) S14)
(declare-fun f29 () S17)
(declare-fun f30 (S18 S2) S7)
(declare-fun f31 () S18)
(declare-fun f32 () S17)
(declare-fun f33 () S18)
(declare-fun f34 (S19 S17) S17)
(declare-fun f35 () S19)
(declare-fun f36 (S21 S2) S14)
(declare-fun f37 (S22 S20) S21)
(declare-fun f38 () S22)
(declare-fun f39 (S20 S10) S7)
(declare-fun f40 (S23 S21) S20)
(declare-fun f41 () S23)
(declare-fun f42 (S24 S18) S18)
(declare-fun f43 () S24)
(declare-fun f44 () S16)
(declare-fun f45 (S25 S14) S1)
(declare-fun f46 (S26 S10) S25)
(declare-fun f47 () S26)
(declare-fun f48 () S12)
(declare-fun f49 () S16)
(declare-fun f50 () S12)
(declare-fun f51 () S16)
(declare-fun f52 () S12)
(declare-fun f53 (S27 S14) S15)
(declare-fun f54 () S27)
(declare-fun f55 (S28 S7) S11)
(declare-fun f56 () S28)
(declare-fun f57 () S27)
(declare-fun f58 () S28)
(declare-fun f59 () S16)
(declare-fun f60 () S12)
(declare-fun f61 (S29 S2) S5)
(declare-fun f62 () S29)
(declare-fun f63 (S30 S17) S14)
(declare-fun f64 (S31 S14) S30)
(declare-fun f65 () S31)
(declare-fun f66 (S32 S21) S7)
(declare-fun f67 (S33 S14) S32)
(declare-fun f68 () S33)
(declare-fun f69 (S34 S20) S14)
(declare-fun f70 (S35 S7) S34)
(declare-fun f71 () S35)
(declare-fun f72 (S36 S18) S7)
(declare-fun f73 (S37 S7) S36)
(declare-fun f74 () S37)
(declare-fun f75 (S38 S10) S17)
(declare-fun f76 (S39 S1) S38)
(declare-fun f77 () S39)
(declare-fun f78 (S40 S2) S18)
(declare-fun f79 (S41 S1) S40)
(declare-fun f80 () S41)
(declare-fun f81 () S13)
(declare-fun f82 () S14)
(declare-fun f83 () S7)
(declare-fun f84 (S42 S29) S14)
(declare-fun f85 (S43 S29) S42)
(declare-fun f86 (S44 S5) S43)
(declare-fun f87 () S44)
(declare-fun f88 () S11)
(declare-fun f89 () S15)
(declare-fun f90 (S45 S46) S14)
(declare-fun f91 () S45)
(declare-fun f92 (S47 S46) S46)
(declare-fun f93 () S47)
(declare-fun f94 () S46)
(declare-fun f95 () S2)
(declare-fun f96 (S48 S7) S2)
(declare-fun f97 () S48)
(declare-fun f98 (S49 S14) S10)
(declare-fun f99 () S49)
(declare-fun f100 () S1)
(declare-fun f101 () S48)
(declare-fun f102 () S48)
(declare-fun f103 () S48)
(declare-fun f104 () S49)
(declare-fun f105 (S51 S50) S11)
(declare-fun f106 () S51)
(declare-fun f107 (S53 S52) S15)
(declare-fun f108 () S53)
(declare-fun f109 (S54 S48) S1)
(declare-fun f110 (S55 S50) S54)
(declare-fun f111 () S55)
(declare-fun f112 (S56 S49) S1)
(declare-fun f113 (S57 S52) S56)
(declare-fun f114 () S57)
(declare-fun f115 () S7)
(declare-fun f116 () S13)
(declare-fun f117 (S58 S50) S12)
(declare-fun f118 () S58)
(declare-fun f119 (S59 S52) S16)
(declare-fun f120 () S59)
(declare-fun f121 () S6)
(declare-fun f122 (S50 S2) S13)
(declare-fun f123 () S25)
(declare-fun f124 (S60 S10) S10)
(declare-fun f125 (S52 S10) S60)
(declare-fun f126 (S61 S52) S49)
(declare-fun f127 () S61)
(declare-fun f128 (S62 S50) S48)
(declare-fun f129 () S62)
(declare-fun f130 (S63 S3) S7)
(declare-fun f131 () S63)
(declare-fun f132 () S48)
(declare-fun f133 () S55)
(declare-fun f134 () S57)
(declare-fun f135 (S64 S3) S3)
(declare-fun f136 (S65 S2) S64)
(declare-fun f137 (S66 S13) S65)
(declare-fun f138 () S66)
(declare-fun f139 () S57)
(declare-fun f140 () S55)
(declare-fun f141 () S28)
(declare-fun f142 () S27)
(assert (not (= f1 f2)))
(assert (forall ((?v0 S2) (?v1 S3)) (= (= (f3 (f4 f5 ?v0) ?v1) f1) (= (f6 (f7 f8 (f9 f10 f11)) (f12 (f13 f14 f15) (f12 (f13 f14 (f16 f17 f18)) f19))) f1))))
(assert (forall ((?v0 S14) (?v1 S10)) (= (= (f20 (f21 f22 ?v0) ?v1) f1) (= ?v0 (f21 (f23 f24 ?v1) f25)))))
(assert (forall ((?v0 S7) (?v1 S2)) (= (= (f26 (f12 f27 ?v0) ?v1) f1) (= ?v0 (f12 (f13 f14 ?v1) f19)))))
(assert (forall ((?v0 S10) (?v1 S10)) (= (= (f20 (f28 f29 ?v0) ?v1) f1) (= ?v0 ?v1))))
(assert (forall ((?v0 S2) (?v1 S2)) (= (= (f26 (f30 f31 ?v0) ?v1) f1) (= ?v0 ?v1))))
(assert (forall ((?v0 S10) (?v1 S10)) (= (= (f20 (f28 f32 ?v0) ?v1) f1) (= ?v1 ?v0))))
(assert (forall ((?v0 S2) (?v1 S2)) (= (= (f26 (f30 f33 ?v0) ?v1) f1) (= ?v1 ?v0))))
(assert (forall ((?v0 S17) (?v1 S10) (?v2 S10)) (= (= (f20 (f28 (f34 f35 ?v0) ?v1) ?v2) f1) (= (f20 (f28 ?v0 ?v2) ?v1) f1))))
(assert (forall ((?v0 S20) (?v1 S2) (?v2 S10)) (= (= (f20 (f36 (f37 f38 ?v0) ?v1) ?v2) f1) (= (f26 (f39 ?v0 ?v2) ?v1) f1))))
(assert (forall ((?v0 S21) (?v1 S10) (?v2 S2)) (= (= (f26 (f39 (f40 f41 ?v0) ?v1) ?v2) f1) (= (f20 (f36 ?v0 ?v2) ?v1) f1))))
(assert (forall ((?v0 S18) (?v1 S2) (?v2 S2)) (= (= (f26 (f30 (f42 f43 ?v0) ?v1) ?v2) f1) (= (f26 (f30 ?v0 ?v2) ?v1) f1))))
(assert (forall ((?v0 S10) (?v1 S14) (?v2 S10)) (= (= (f20 (f21 (f23 f44 ?v0) ?v1) ?v2) f1) (or (= ?v2 ?v0) (= (f45 (f46 f47 ?v2) ?v1) f1)))))
(assert (forall ((?v0 S2) (?v1 S7) (?v2 S2)) (= (= (f26 (f12 (f13 f48 ?v0) ?v1) ?v2) f1) (or (= ?v2 ?v0) (= (f6 (f7 f8 ?v2) ?v1) f1)))))
(assert (forall ((?v0 S10) (?v1 S14) (?v2 S10)) (= (= (f20 (f21 (f23 f49 ?v0) ?v1) ?v2) f1) (and (= ?v0 ?v2) (= (f20 ?v1 ?v2) f1)))))
(assert (forall ((?v0 S2) (?v1 S7) (?v2 S2)) (= (= (f26 (f12 (f13 f50 ?v0) ?v1) ?v2) f1) (and (= ?v0 ?v2) (= (f26 ?v1 ?v2) f1)))))
(assert (forall ((?v0 S10) (?v1 S14) (?v2 S10)) (= (= (f20 (f21 (f23 f51 ?v0) ?v1) ?v2) f1) (and (= ?v2 ?v0) (= (f20 ?v1 ?v2) f1)))))
(assert (forall ((?v0 S2) (?v1 S7) (?v2 S2)) (= (= (f26 (f12 (f13 f52 ?v0) ?v1) ?v2) f1) (and (= ?v2 ?v0) (= (f26 ?v1 ?v2) f1)))))
(assert (forall ((?v0 S14) (?v1 S14) (?v2 S10)) (= (= (f20 (f21 (f53 f54 ?v0) ?v1) ?v2) f1) (or (= (f20 ?v0 ?v2) f1) (= (f20 ?v1 ?v2) f1)))))
(assert (forall ((?v0 S7) (?v1 S7) (?v2 S2)) (= (= (f26 (f12 (f55 f56 ?v0) ?v1) ?v2) f1) (or (= (f26 ?v0 ?v2) f1) (= (f26 ?v1 ?v2) f1)))))
(assert (forall ((?v0 S14) (?v1 S14) (?v2 S10)) (= (= (f20 (f21 (f53 f57 ?v0) ?v1) ?v2) f1) (and (= (f20 ?v0 ?v2) f1) (= (f20 ?v1 ?v2) f1)))))
(assert (forall ((?v0 S7) (?v1 S7) (?v2 S2)) (= (= (f26 (f12 (f55 f58 ?v0) ?v1) ?v2) f1) (and (= (f26 ?v0 ?v2) f1) (= (f26 ?v1 ?v2) f1)))))
(assert (forall ((?v0 S10) (?v1 S14) (?v2 S10)) (= (= (f20 (f21 (f23 f59 ?v0) ?v1) ?v2) f1) (=> (not (= ?v2 ?v0)) (= (f20 ?v1 ?v2) f1)))))
(assert (forall ((?v0 S2) (?v1 S7) (?v2 S2)) (= (= (f26 (f12 (f13 f60 ?v0) ?v1) ?v2) f1) (=> (not (= ?v2 ?v0)) (= (f26 ?v1 ?v2) f1)))))
(assert (forall ((?v0 S2) (?v1 S2) (?v2 S3)) (= (= (f3 (f4 (f61 f62 ?v0) ?v1) ?v2) f1) (= (f9 f10 f11) f15))))
(assert (forall ((?v0 S14) (?v1 S17) (?v2 S10)) (= (= (f20 (f63 (f64 f65 ?v0) ?v1) ?v2) f1) (exists ((?v3 S10)) (and (= (f45 (f46 f47 ?v3) ?v0) f1) (= (f20 (f28 ?v1 ?v2) ?v3) f1))))))
(assert (forall ((?v0 S14) (?v1 S21) (?v2 S2)) (= (= (f26 (f66 (f67 f68 ?v0) ?v1) ?v2) f1) (exists ((?v3 S10)) (and (= (f45 (f46 f47 ?v3) ?v0) f1) (= (f20 (f36 ?v1 ?v2) ?v3) f1))))))
(assert (forall ((?v0 S7) (?v1 S20) (?v2 S10)) (= (= (f20 (f69 (f70 f71 ?v0) ?v1) ?v2) f1) (exists ((?v3 S2)) (and (= (f6 (f7 f8 ?v3) ?v0) f1) (= (f26 (f39 ?v1 ?v2) ?v3) f1))))))
(assert (forall ((?v0 S7) (?v1 S18) (?v2 S2)) (= (= (f26 (f72 (f73 f74 ?v0) ?v1) ?v2) f1) (exists ((?v3 S2)) (and (= (f6 (f7 f8 ?v3) ?v0) f1) (= (f26 (f30 ?v1 ?v2) ?v3) f1))))))
(assert (forall ((?v0 S1) (?v1 S10) (?v2 S10) (?v3 S10)) (let ((?v_0 (= ?v0 f1))) (= (= (f20 (f28 (f75 (f76 f77 ?v0) ?v1) ?v2) ?v3) f1) (and (=> (= ?v_0 true) (= ?v3 ?v1)) (=> (= ?v_0 false) (= ?v3 ?v2)))))))
(assert (forall ((?v0 S1) (?v1 S2) (?v2 S2) (?v3 S2)) (let ((?v_0 (= ?v0 f1))) (= (= (f26 (f30 (f78 (f79 f80 ?v0) ?v1) ?v2) ?v3) f1) (and (=> (= ?v_0 true) (= ?v3 ?v1)) (=> (= ?v_0 false) (= ?v3 ?v2)))))))
(assert (forall ((?v0 S2)) (= (f16 f81 ?v0) ?v0)))
(assert (forall ((?v0 S10)) (= (= (f20 f82 ?v0) f1) false)))
(assert (forall ((?v0 S2)) (= (= (f26 f83 ?v0) f1) false)))
(assert (not (= (f20 (f84 (f85 (f86 f87 f5) f62) f62) f11) f1)))
(assert (forall ((?v0 S2) (?v1 S2) (?v2 S7)) (let ((?v_0 (f7 f8 ?v0))) (=> (= (f6 ?v_0 (f12 (f13 f14 ?v1) ?v2)) f1) (=> (=> (= ?v0 ?v1) false) (=> (=> (= (f6 ?v_0 ?v2) f1) false) false))))))
(assert (forall ((?v0 S10) (?v1 S10) (?v2 S14)) (let ((?v_0 (f46 f47 ?v0))) (=> (= (f45 ?v_0 (f21 (f23 f24 ?v1) ?v2)) f1) (=> (=> (= ?v0 ?v1) false) (=> (=> (= (f45 ?v_0 ?v2) f1) false) false))))))
(assert (forall ((?v0 S2) (?v1 S7) (?v2 S2)) (let ((?v_0 (f7 f8 ?v0))) (=> (=> (not (= (f6 ?v_0 ?v1) f1)) (= ?v0 ?v2)) (= (f6 ?v_0 (f12 (f13 f14 ?v2) ?v1)) f1)))))
(assert (forall ((?v0 S10) (?v1 S14) (?v2 S10)) (let ((?v_0 (f46 f47 ?v0))) (=> (=> (not (= (f45 ?v_0 ?v1) f1)) (= ?v0 ?v2)) (= (f45 ?v_0 (f21 (f23 f24 ?v2) ?v1)) f1)))))
(assert (forall ((?v0 S10)) (=> (= (f45 (f46 f47 ?v0) f25) f1) false)))
(assert (forall ((?v0 S2)) (=> (= (f6 (f7 f8 ?v0) f19) f1) false)))
(assert (forall ((?v0 S2)) (= (f12 f88 (f30 f31 ?v0)) (f12 (f13 f14 ?v0) f19))))
(assert (forall ((?v0 S10)) (= (f21 f89 (f28 f29 ?v0)) (f21 (f23 f24 ?v0) f25))))
(assert (forall ((?v0 S2)) (= (f12 f88 (f30 f33 ?v0)) (f12 (f13 f14 ?v0) f19))))
(assert (forall ((?v0 S10)) (= (f21 f89 (f28 f32 ?v0)) (f21 (f23 f24 ?v0) f25))))
(assert (forall ((?v0 S2) (?v1 S7)) (= (f12 f88 (f12 (f13 f50 ?v0) ?v1)) (ite (= (f26 ?v1 ?v0) f1) (f12 (f13 f14 ?v0) f19) f19))))
(assert (forall ((?v0 S10) (?v1 S14)) (= (f21 f89 (f21 (f23 f49 ?v0) ?v1)) (ite (= (f20 ?v1 ?v0) f1) (f21 (f23 f24 ?v0) f25) f25))))
(assert (forall ((?v0 S2) (?v1 S7)) (= (f12 f88 (f12 (f13 f52 ?v0) ?v1)) (ite (= (f26 ?v1 ?v0) f1) (f12 (f13 f14 ?v0) f19) f19))))
(assert (forall ((?v0 S10) (?v1 S14)) (= (f21 f89 (f21 (f23 f51 ?v0) ?v1)) (ite (= (f20 ?v1 ?v0) f1) (f21 (f23 f24 ?v0) f25) f25))))
(assert (= (f45 (f46 f47 f11) (f90 f91 (f92 f93 f94))) f1))
(assert (forall ((?v0 S2) (?v1 S7)) (not (= f19 (f12 (f13 f14 ?v0) ?v1)))))
(assert (forall ((?v0 S10) (?v1 S14)) (not (= f25 (f21 (f23 f24 ?v0) ?v1)))))
(assert (forall ((?v0 S2) (?v1 S7)) (not (= (f12 (f13 f14 ?v0) ?v1) f19))))
(assert (forall ((?v0 S10) (?v1 S14)) (not (= (f21 (f23 f24 ?v0) ?v1) f25))))
(assert (forall ((?v0 S2) (?v1 S2)) (= (= (f6 (f7 f8 ?v0) (f12 (f13 f14 ?v1) f19)) f1) (= ?v0 ?v1))))
(assert (forall ((?v0 S10) (?v1 S10)) (= (= (f45 (f46 f47 ?v0) (f21 (f23 f24 ?v1) f25)) f1) (= ?v0 ?v1))))
(assert (forall ((?v0 S2) (?v1 S2) (?v2 S2) (?v3 S2)) (= (= (f12 (f13 f14 ?v0) (f12 (f13 f14 ?v1) f19)) (f12 (f13 f14 ?v2) (f12 (f13 f14 ?v3) f19))) (or (and (= ?v0 ?v2) (= ?v1 ?v3)) (and (= ?v0 ?v3) (= ?v1 ?v2))))))
(assert (forall ((?v0 S10) (?v1 S10) (?v2 S10) (?v3 S10)) (= (= (f21 (f23 f24 ?v0) (f21 (f23 f24 ?v1) f25)) (f21 (f23 f24 ?v2) (f21 (f23 f24 ?v3) f25))) (or (and (= ?v0 ?v2) (= ?v1 ?v3)) (and (= ?v0 ?v3) (= ?v1 ?v2))))))
(assert (forall ((?v0 S10)) (=> (= (f45 (f46 f47 ?v0) (f90 f91 f94)) f1) (not (= (f9 f10 ?v0) f95)))))
(assert (forall ((?v0 S14) (?v1 S10)) (=> (= ?v0 f25) (not (= (f45 (f46 f47 ?v1) ?v0) f1)))))
(assert (forall ((?v0 S7) (?v1 S2)) (=> (= ?v0 f19) (not (= (f6 (f7 f8 ?v1) ?v0) f1)))))
(assert (forall ((?v0 S7)) (= (= (f12 f88 ?v0) f19) (forall ((?v1 S2)) (not (= (f26 ?v0 ?v1) f1))))))
(assert (forall ((?v0 S14)) (= (= (f21 f89 ?v0) f25) (forall ((?v1 S10)) (not (= (f20 ?v0 ?v1) f1))))))
(assert (forall ((?v0 S10)) (= (= (f45 (f46 f47 ?v0) f25) f1) false)))
(assert (forall ((?v0 S2)) (= (= (f6 (f7 f8 ?v0) f19) f1) false)))
(assert (forall ((?v0 S7)) (= (= f19 (f12 f88 ?v0)) (forall ((?v1 S2)) (not (= (f26 ?v0 ?v1) f1))))))
(assert (forall ((?v0 S14)) (= (= f25 (f21 f89 ?v0)) (forall ((?v1 S10)) (not (= (f20 ?v0 ?v1) f1))))))
(assert (forall ((?v0 S14)) (= (forall ((?v1 S10)) (=> (= (f45 (f46 f47 ?v1) f25) f1) (= (f20 ?v0 ?v1) f1))) true)))
(assert (forall ((?v0 S7)) (= (forall ((?v1 S2)) (=> (= (f6 (f7 f8 ?v1) f19) f1) (= (f26 ?v0 ?v1) f1))) true)))
(assert (forall ((?v0 S14)) (= (exists ((?v1 S10)) (and (= (f45 (f46 f47 ?v1) f25) f1) (= (f20 ?v0 ?v1) f1))) false)))
(assert (forall ((?v0 S7)) (= (exists ((?v1 S2)) (and (= (f6 (f7 f8 ?v1) f19) f1) (= (f26 ?v0 ?v1) f1))) false)))
(assert (forall ((?v0 S14)) (= (exists ((?v1 S10)) (= (f45 (f46 f47 ?v1) ?v0) f1)) (not (= ?v0 f25)))))
(assert (forall ((?v0 S7)) (= (exists ((?v1 S2)) (= (f6 (f7 f8 ?v1) ?v0) f1)) (not (= ?v0 f19)))))
(assert (forall ((?v0 S14)) (= (forall ((?v1 S10)) (not (= (f45 (f46 f47 ?v1) ?v0) f1))) (= ?v0 f25))))
(assert (forall ((?v0 S7)) (= (forall ((?v1 S2)) (not (= (f6 (f7 f8 ?v1) ?v0) f1))) (= ?v0 f19))))
(assert (= f19 (f12 f88 f83)))
(assert (= f25 (f21 f89 f82)))
(assert (forall ((?v0 S2) (?v1 S7)) (=> (= (f6 (f7 f8 ?v0) ?v1) f1) (= (f12 (f13 f14 ?v0) ?v1) ?v1))))
(assert (forall ((?v0 S10) (?v1 S14)) (=> (= (f45 (f46 f47 ?v0) ?v1) f1) (= (f21 (f23 f24 ?v0) ?v1) ?v1))))
(assert (forall ((?v0 S2) (?v1 S7) (?v2 S2)) (let ((?v_0 (f7 f8 ?v0))) (=> (= (f6 ?v_0 ?v1) f1) (= (f6 ?v_0 (f12 (f13 f14 ?v2) ?v1)) f1)))))
(assert (forall ((?v0 S10) (?v1 S14) (?v2 S10)) (let ((?v_0 (f46 f47 ?v0))) (=> (= (f45 ?v_0 ?v1) f1) (= (f45 ?v_0 (f21 (f23 f24 ?v2) ?v1)) f1)))))
(assert (forall ((?v0 S2) (?v1 S7) (?v2 S7)) (let ((?v_0 (f7 f8 ?v0)) (?v_1 (f13 f14 ?v0))) (=> (not (= (f6 ?v_0 ?v1) f1)) (=> (not (= (f6 ?v_0 ?v2) f1)) (= (= (f12 ?v_1 ?v1) (f12 ?v_1 ?v2)) (= ?v1 ?v2)))))))
(assert (forall ((?v0 S10) (?v1 S14) (?v2 S14)) (let ((?v_0 (f46 f47 ?v0)) (?v_1 (f23 f24 ?v0))) (=> (not (= (f45 ?v_0 ?v1) f1)) (=> (not (= (f45 ?v_0 ?v2) f1)) (= (= (f21 ?v_1 ?v1) (f21 ?v_1 ?v2)) (= ?v1 ?v2)))))))
(assert (forall ((?v0 S2) (?v1 S7) (?v2 S2)) (= (= (f26 (f12 (f13 f14 ?v0) ?v1) ?v2) f1) (or (= ?v0 ?v2) (= (f26 ?v1 ?v2) f1)))))
(assert (forall ((?v0 S10) (?v1 S14) (?v2 S10)) (= (= (f20 (f21 (f23 f24 ?v0) ?v1) ?v2) f1) (or (= ?v0 ?v2) (= (f20 ?v1 ?v2) f1)))))
(assert (forall ((?v0 S2) (?v1 S2) (?v2 S7)) (let ((?v_0 (f7 f8 ?v0))) (= (= (f6 ?v_0 (f12 (f13 f14 ?v1) ?v2)) f1) (or (= ?v0 ?v1) (= (f6 ?v_0 ?v2) f1))))))
(assert (forall ((?v0 S10) (?v1 S10) (?v2 S14)) (let ((?v_0 (f46 f47 ?v0))) (= (= (f45 ?v_0 (f21 (f23 f24 ?v1) ?v2)) f1) (or (= ?v0 ?v1) (= (f45 ?v_0 ?v2) f1))))))
(assert (forall ((?v0 S2) (?v1 S2) (?v2 S7)) (let ((?v_1 (f13 f14 ?v0)) (?v_0 (f13 f14 ?v1))) (= (f12 ?v_1 (f12 ?v_0 ?v2)) (f12 ?v_0 (f12 ?v_1 ?v2))))))
(assert (forall ((?v0 S10) (?v1 S10) (?v2 S14)) (let ((?v_1 (f23 f24 ?v0)) (?v_0 (f23 f24 ?v1))) (= (f21 ?v_1 (f21 ?v_0 ?v2)) (f21 ?v_0 (f21 ?v_1 ?v2))))))
(assert (forall ((?v0 S2) (?v1 S7)) (let ((?v_0 (f13 f14 ?v0))) (let ((?v_1 (f12 ?v_0 ?v1))) (= (f12 ?v_0 ?v_1) ?v_1)))))
(assert (forall ((?v0 S10) (?v1 S14)) (let ((?v_0 (f23 f24 ?v0))) (let ((?v_1 (f21 ?v_0 ?v1))) (= (f21 ?v_0 ?v_1) ?v_1)))))
(assert (forall ((?v0 S2) (?v1 S7)) (= (f12 (f13 f14 ?v0) (f12 f88 ?v1)) (f12 f88 (f12 (f13 f60 ?v0) ?v1)))))
(assert (forall ((?v0 S10) (?v1 S14)) (= (f21 (f23 f24 ?v0) (f21 f89 ?v1)) (f21 f89 (f21 (f23 f59 ?v0) ?v1)))))
(assert (forall ((?v0 S2) (?v1 S7)) (= (f12 (f13 f14 ?v0) ?v1) (f12 f88 (f12 (f13 f48 ?v0) ?v1)))))
(assert (forall ((?v0 S10) (?v1 S14)) (= (f21 (f23 f24 ?v0) ?v1) (f21 f89 (f21 (f23 f44 ?v0) ?v1)))))
(assert (forall ((?v0 S2) (?v1 S7)) (= (f6 (f7 f8 ?v0) (f12 (f13 f14 ?v0) ?v1)) f1)))
(assert (forall ((?v0 S10) (?v1 S14)) (= (f45 (f46 f47 ?v0) (f21 (f23 f24 ?v0) ?v1)) f1)))
(assert (forall ((?v0 S2) (?v1 S7)) (= (f12 (f13 f14 ?v0) ?v1) (f12 f88 (f12 (f13 f48 ?v0) ?v1)))))
(assert (forall ((?v0 S10) (?v1 S14)) (= (f21 (f23 f24 ?v0) ?v1) (f21 f89 (f21 (f23 f44 ?v0) ?v1)))))
(assert (forall ((?v0 S2) (?v1 S2)) (=> (= (f12 (f13 f14 ?v0) f19) (f12 (f13 f14 ?v1) f19)) (= ?v0 ?v1))))
(assert (forall ((?v0 S10) (?v1 S10)) (=> (= (f21 (f23 f24 ?v0) f25) (f21 (f23 f24 ?v1) f25)) (= ?v0 ?v1))))
(assert (forall ((?v0 S2) (?v1 S2)) (=> (= (f6 (f7 f8 ?v0) (f12 (f13 f14 ?v1) f19)) f1) (=> (=> (= ?v0 ?v1) false) false))))
(assert (forall ((?v0 S10) (?v1 S10)) (=> (= (f45 (f46 f47 ?v0) (f21 (f23 f24 ?v1) f25)) f1) (=> (=> (= ?v0 ?v1) false) false))))
(assert (forall ((?v0 S2)) (= (f96 f97 (f12 (f13 f14 ?v0) f19)) ?v0)))
(assert (forall ((?v0 S10)) (= (f98 f99 (f21 (f23 f24 ?v0) f25)) ?v0)))
(assert (forall ((?v0 S2)) (= (= (f26 f19 ?v0) f1) (= f100 f1))))
(assert (forall ((?v0 S10)) (= (= (f20 f25 ?v0) f1) (= f100 f1))))
(assert (forall ((?v0 S2)) (= (= (f26 f19 ?v0) f1) (= f100 f1))))
(assert (forall ((?v0 S10)) (= (= (f20 f25 ?v0) f1) (= f100 f1))))
(assert (forall ((?v0 S2) (?v1 S7)) (=> (= (f6 (f7 f8 ?v0) ?v1) f1) (=> (forall ((?v2 S7)) (=> (= ?v1 (f12 (f13 f14 ?v0) ?v2)) (=> (not (= (f6 (f7 f8 ?v0) ?v2) f1)) false))) false))))
(assert (forall ((?v0 S10) (?v1 S14)) (=> (= (f45 (f46 f47 ?v0) ?v1) f1) (=> (forall ((?v2 S14)) (=> (= ?v1 (f21 (f23 f24 ?v0) ?v2)) (=> (not (= (f45 (f46 f47 ?v0) ?v2) f1)) false))) false))))
(assert (forall ((?v0 S2) (?v1 S7)) (=> (= (f6 (f7 f8 ?v0) ?v1) f1) (exists ((?v2 S7)) (and (= ?v1 (f12 (f13 f14 ?v0) ?v2)) (not (= (f6 (f7 f8 ?v0) ?v2) f1)))))))
(assert (forall ((?v0 S10) (?v1 S14)) (=> (= (f45 (f46 f47 ?v0) ?v1) f1) (exists ((?v2 S14)) (and (= ?v1 (f21 (f23 f24 ?v0) ?v2)) (not (= (f45 (f46 f47 ?v0) ?v2) f1)))))))
(assert (forall ((?v0 S14)) (=> (forall ((?v1 S10)) (=> (= (f45 (f46 f47 ?v1) ?v0) f1) false)) (= ?v0 f25))))
(assert (forall ((?v0 S7)) (=> (forall ((?v1 S2)) (=> (= (f6 (f7 f8 ?v1) ?v0) f1) false)) (= ?v0 f19))))
(assert (= (= f18 f18) true))
(assert (forall ((?v0 S2)) (= (f16 f17 ?v0) ?v0)))
(assert (= (f96 f101 f19) f15))
(assert (forall ((?v0 S7)) (= (not (= ?v0 f19)) (exists ((?v1 S2) (?v2 S7)) (and (= ?v0 (f12 (f13 f14 ?v1) ?v2)) (not (= (f6 (f7 f8 ?v1) ?v2) f1)))))))
(assert (forall ((?v0 S14)) (= (not (= ?v0 f25)) (exists ((?v1 S10) (?v2 S14)) (and (= ?v0 (f21 (f23 f24 ?v1) ?v2)) (not (= (f45 (f46 f47 ?v1) ?v2) f1)))))))
(assert (forall ((?v0 S2) (?v1 S2)) (= (= (f16 f17 ?v0) (f16 f17 ?v1)) (= ?v0 ?v1))))
(assert (not (= f95 f15)))
(assert (forall ((?v0 S2) (?v1 S2)) (let ((?v_0 (f16 f17 ?v0))) (= (= ?v_0 ?v1) (= ?v1 ?v_0)))))
(assert (= (f96 f102 f19) f95))
(assert (not (= f15 f95)))
(assert (not (= f95 f15)))
(assert (forall ((?v0 S7)) (= (f96 f97 ?v0) (f96 f103 (f12 f27 ?v0)))))
(assert (forall ((?v0 S14)) (= (f98 f99 ?v0) (f98 f104 (f21 f22 ?v0)))))
(assert (forall ((?v0 S50) (?v1 S2) (?v2 S2)) (= (= (f26 (f12 (f105 f106 ?v0) (f12 (f13 f14 ?v1) f19)) ?v2) f1) (= ?v1 ?v2))))
(assert (forall ((?v0 S52) (?v1 S10) (?v2 S10)) (= (= (f20 (f21 (f107 f108 ?v0) (f21 (f23 f24 ?v1) f25)) ?v2) f1) (= ?v1 ?v2))))
(assert (forall ((?v0 S50) (?v1 S48) (?v2 S2)) (=> (= (f109 (f110 f111 ?v0) ?v1) f1) (= (f96 ?v1 (f12 (f13 f14 ?v2) f19)) ?v2))))
(assert (forall ((?v0 S52) (?v1 S49) (?v2 S10)) (=> (= (f112 (f113 f114 ?v0) ?v1) f1) (= (f98 ?v1 (f21 (f23 f24 ?v2) f25)) ?v2))))
(assert (not (= (f26 f115 (f16 f17 f18)) f1)))
(assert (let ((?v_0 (f16 f17 f18))) (= (f16 f116 ?v_0) ?v_0)))
(assert (forall ((?v0 S2) (?v1 S2)) (= (= (f16 f116 ?v0) (f16 f116 ?v1)) (= ?v0 ?v1))))
(assert (forall ((?v0 S2)) (= (f16 f17 ?v0) (f16 f116 ?v0))))
(assert (forall ((?v0 S2)) (= (f16 f17 ?v0) (f16 f116 ?v0))))
(assert (= (f26 f115 f95) f1))
(assert (forall ((?v0 S2)) (= (= (f26 f115 ?v0) f1) (= ?v0 f95))))
(assert (not (= (f26 f115 f15) f1)))
(assert (forall ((?v0 S50) (?v1 S7) (?v2 S2)) (=> (= (f26 (f12 (f105 f106 ?v0) ?v1) ?v2) f1) (not (= ?v1 f19)))))
(assert (forall ((?v0 S52) (?v1 S14) (?v2 S10)) (=> (= (f20 (f21 (f107 f108 ?v0) ?v1) ?v2) f1) (not (= ?v1 f25)))))
(assert (forall ((?v0 S50) (?v1 S2)) (=> (= (f26 (f12 (f105 f106 ?v0) f19) ?v1) f1) false)))
(assert (forall ((?v0 S52) (?v1 S10)) (=> (= (f20 (f21 (f107 f108 ?v0) f25) ?v1) f1) false)))
(assert (= (f16 f116 f95) f95))
(assert (forall ((?v0 S2)) (= (= f95 (f16 f116 ?v0)) (= ?v0 f95))))
(assert (forall ((?v0 S2)) (= (= (f16 f116 ?v0) f95) (= ?v0 f95))))
(assert (= (f16 f116 f15) f15))
(assert (forall ((?v0 S2)) (let ((?v_0 (f16 f17 ?v0))) (= (f16 f116 ?v_0) ?v_0))))
(assert (forall ((?v0 S10)) (= (f98 f104 (f28 f29 ?v0)) ?v0)))
(assert (forall ((?v0 S2)) (= (f96 f103 (f30 f31 ?v0)) ?v0)))
(assert (forall ((?v0 S10)) (= (f98 f104 (f28 f32 ?v0)) ?v0)))
(assert (forall ((?v0 S2)) (= (f96 f103 (f30 f33 ?v0)) ?v0)))
(assert (forall ((?v0 S1) (?v1 S10) (?v2 S10)) (= (ite (= ?v0 f1) ?v1 ?v2) (f98 f104 (f28 (f75 (f76 f77 ?v0) ?v1) ?v2)))))
(assert (forall ((?v0 S1) (?v1 S2) (?v2 S2)) (= (ite (= ?v0 f1) ?v1 ?v2) (f96 f103 (f30 (f78 (f79 f80 ?v0) ?v1) ?v2)))))
(assert (forall ((?v0 S50) (?v1 S2) (?v2 S7) (?v3 S2)) (=> (= (f26 (f12 (f13 (f117 f118 ?v0) ?v1) ?v2) ?v3) f1) (=> (not (= (f6 (f7 f8 ?v1) ?v2) f1)) (= (f26 (f12 (f105 f106 ?v0) (f12 (f13 f14 ?v1) ?v2)) ?v3) f1)))))
(assert (forall ((?v0 S52) (?v1 S10) (?v2 S14) (?v3 S10)) (=> (= (f20 (f21 (f23 (f119 f120 ?v0) ?v1) ?v2) ?v3) f1) (=> (not (= (f45 (f46 f47 ?v1) ?v2) f1)) (= (f20 (f21 (f107 f108 ?v0) (f21 (f23 f24 ?v1) ?v2)) ?v3) f1)))))
(assert (forall ((?v0 S14) (?v1 S10)) (=> (= (f20 ?v0 ?v1) f1) (=> (forall ((?v2 S10)) (=> (= (f20 ?v0 ?v2) f1) (= ?v2 ?v1))) (= (f98 f104 ?v0) ?v1)))))
(assert (forall ((?v0 S7) (?v1 S2)) (=> (= (f26 ?v0 ?v1) f1) (=> (forall ((?v2 S2)) (=> (= (f26 ?v0 ?v2) f1) (= ?v2 ?v1))) (= (f96 f103 ?v0) ?v1)))))
(assert (forall ((?v0 S50) (?v1 S48) (?v2 S7) (?v3 S2)) (=> (= (f109 (f110 f111 ?v0) ?v1) f1) (=> (= (f6 f121 ?v2) f1) (=> (not (= (f6 (f7 f8 ?v3) ?v2) f1)) (=> (not (= ?v2 f19)) (= (f96 ?v1 (f12 (f13 f14 ?v3) ?v2)) (f16 (f122 ?v0 ?v3) (f96 ?v1 ?v2)))))))))
(assert (forall ((?v0 S52) (?v1 S49) (?v2 S14) (?v3 S10)) (=> (= (f112 (f113 f114 ?v0) ?v1) f1) (=> (= (f45 f123 ?v2) f1) (=> (not (= (f45 (f46 f47 ?v3) ?v2) f1)) (=> (not (= ?v2 f25)) (= (f98 ?v1 (f21 (f23 f24 ?v3) ?v2)) (f124 (f125 ?v0 ?v3) (f98 ?v1 ?v2)))))))))
(assert (forall ((?v0 S10) (?v1 S14)) (= (= (f45 (f46 f47 ?v0) ?v1) f1) (= (f20 ?v1 ?v0) f1))))
(assert (forall ((?v0 S2) (?v1 S7)) (= (= (f6 (f7 f8 ?v0) ?v1) f1) (= (f26 ?v1 ?v0) f1))))
(assert (forall ((?v0 S14)) (= (f21 f89 ?v0) ?v0)))
(assert (forall ((?v0 S7)) (= (f12 f88 ?v0) ?v0)))
(assert (forall ((?v0 S52) (?v1 S14)) (= (f98 (f126 f127 ?v0) ?v1) (f98 f104 (f21 (f107 f108 ?v0) ?v1)))))
(assert (forall ((?v0 S50) (?v1 S7)) (= (f96 (f128 f129 ?v0) ?v1) (f96 f103 (f12 (f105 f106 ?v0) ?v1)))))
(assert (forall ((?v0 S14) (?v1 S14)) (=> (or (= (f45 f123 (f21 f89 ?v0)) f1) (= (f45 f123 (f21 f89 ?v1)) f1)) (= (f45 f123 (f21 f89 (f21 (f53 f57 ?v0) ?v1))) f1))))
(assert (forall ((?v0 S7) (?v1 S7)) (=> (or (= (f6 f121 (f12 f88 ?v0)) f1) (= (f6 f121 (f12 f88 ?v1)) f1)) (= (f6 f121 (f12 f88 (f12 (f55 f58 ?v0) ?v1))) f1))))
(assert (= (f6 f121 f19) f1))
(assert (= (f45 f123 f25) f1))
(assert (forall ((?v0 S7) (?v1 S2)) (=> (= (f6 f121 ?v0) f1) (= (f6 f121 (f12 (f13 f14 ?v1) ?v0)) f1))))
(assert (forall ((?v0 S14) (?v1 S10)) (=> (= (f45 f123 ?v0) f1) (= (f45 f123 (f21 (f23 f24 ?v1) ?v0)) f1))))
(assert (forall ((?v0 S52) (?v1 S49) (?v2 S14)) (=> (= (f112 (f113 f114 ?v0) ?v1) f1) (=> (= (f45 f123 ?v2) f1) (= (f98 ?v1 ?v2) (f98 (f126 f127 ?v0) ?v2))))))
(assert (forall ((?v0 S50) (?v1 S48) (?v2 S7)) (=> (= (f109 (f110 f111 ?v0) ?v1) f1) (=> (= (f6 f121 ?v2) f1) (= (f96 ?v1 ?v2) (f96 (f128 f129 ?v0) ?v2))))))
(assert (forall ((?v0 S14) (?v1 S14)) (= (= (f45 f123 (f21 f89 (f21 (f53 f54 ?v0) ?v1))) f1) (and (= (f45 f123 (f21 f89 ?v0)) f1) (= (f45 f123 (f21 f89 ?v1)) f1)))))
(assert (forall ((?v0 S7) (?v1 S7)) (= (= (f6 f121 (f12 f88 (f12 (f55 f56 ?v0) ?v1))) f1) (and (= (f6 f121 (f12 f88 ?v0)) f1) (= (f6 f121 (f12 f88 ?v1)) f1)))))
(assert (forall ((?v0 S14) (?v1 S17)) (=> (= (f45 f123 ?v0) f1) (= (= (f45 f123 (f21 f89 (f63 (f64 f65 ?v0) ?v1))) f1) (forall ((?v2 S10)) (=> (= (f45 (f46 f47 ?v2) ?v0) f1) (= (f45 f123 (f21 f89 (f28 (f34 f35 ?v1) ?v2))) f1)))))))
(assert (forall ((?v0 S14) (?v1 S21)) (=> (= (f45 f123 ?v0) f1) (= (= (f6 f121 (f12 f88 (f66 (f67 f68 ?v0) ?v1))) f1) (forall ((?v2 S10)) (=> (= (f45 (f46 f47 ?v2) ?v0) f1) (= (f6 f121 (f12 f88 (f39 (f40 f41 ?v1) ?v2))) f1)))))))
(assert (forall ((?v0 S7) (?v1 S20)) (=> (= (f6 f121 ?v0) f1) (= (= (f45 f123 (f21 f89 (f69 (f70 f71 ?v0) ?v1))) f1) (forall ((?v2 S2)) (=> (= (f6 (f7 f8 ?v2) ?v0) f1) (= (f45 f123 (f21 f89 (f36 (f37 f38 ?v1) ?v2))) f1)))))))
(assert (forall ((?v0 S7) (?v1 S18)) (=> (= (f6 f121 ?v0) f1) (= (= (f6 f121 (f12 f88 (f72 (f73 f74 ?v0) ?v1))) f1) (forall ((?v2 S2)) (=> (= (f6 (f7 f8 ?v2) ?v0) f1) (= (f6 f121 (f12 f88 (f30 (f42 f43 ?v1) ?v2))) f1)))))))
(assert (forall ((?v0 S2) (?v1 S7)) (= (= (f6 f121 (f12 (f13 f14 ?v0) ?v1)) f1) (= (f6 f121 ?v1) f1))))
(assert (forall ((?v0 S10) (?v1 S14)) (= (= (f45 f123 (f21 (f23 f24 ?v0) ?v1)) f1) (= (f45 f123 ?v1) f1))))
(assert (forall ((?v0 S50) (?v1 S2)) (= (f26 (f12 (f13 (f117 f118 ?v0) ?v1) f19) ?v1) f1)))
(assert (forall ((?v0 S52) (?v1 S10)) (= (f20 (f21 (f23 (f119 f120 ?v0) ?v1) f25) ?v1) f1)))
(assert (forall ((?v0 S50) (?v1 S2) (?v2 S2)) (=> (= (f26 (f12 (f13 (f117 f118 ?v0) ?v1) f19) ?v2) f1) (=> (=> (= ?v2 ?v1) false) false))))
(assert (forall ((?v0 S52) (?v1 S10) (?v2 S10)) (=> (= (f20 (f21 (f23 (f119 f120 ?v0) ?v1) f25) ?v2) f1) (=> (=> (= ?v2 ?v1) false) false))))
(assert (forall ((?v0 S2) (?v1 S7) (?v2 S50) (?v3 S2) (?v4 S2)) (let ((?v_0 (f13 (f117 f118 ?v2) ?v3))) (=> (not (= (f6 (f7 f8 ?v0) ?v1) f1)) (=> (= (f26 (f12 ?v_0 ?v1) ?v4) f1) (= (f26 (f12 ?v_0 (f12 (f13 f14 ?v0) ?v1)) (f16 (f122 ?v2 ?v0) ?v4)) f1))))))
(assert (forall ((?v0 S10) (?v1 S14) (?v2 S52) (?v3 S10) (?v4 S10)) (let ((?v_0 (f23 (f119 f120 ?v2) ?v3))) (=> (not (= (f45 (f46 f47 ?v0) ?v1) f1)) (=> (= (f20 (f21 ?v_0 ?v1) ?v4) f1) (= (f20 (f21 ?v_0 (f21 (f23 f24 ?v0) ?v1)) (f124 (f125 ?v2 ?v0) ?v4)) f1))))))
(assert (forall ((?v0 S50) (?v1 S2)) (= (f96 (f128 f129 ?v0) (f12 (f13 f14 ?v1) f19)) ?v1)))
(assert (forall ((?v0 S52) (?v1 S10)) (= (f98 (f126 f127 ?v0) (f21 (f23 f24 ?v1) f25)) ?v1)))
(assert (forall ((?v0 S48) (?v1 S50) (?v2 S2)) (=> (= ?v0 (f128 f129 ?v1)) (= (f96 ?v0 (f12 (f13 f14 ?v2) f19)) ?v2))))
(assert (forall ((?v0 S49) (?v1 S52) (?v2 S10)) (=> (= ?v0 (f126 f127 ?v1)) (= (f98 ?v0 (f21 (f23 f24 ?v2) f25)) ?v2))))
(assert (forall ((?v0 S46)) (= (f45 f123 (f90 f91 ?v0)) f1)))
(assert (forall ((?v0 S3)) (= (f6 f121 (f130 f131 ?v0)) f1)))
(assert (forall ((?v0 S50) (?v1 S48) (?v2 S7)) (=> (= (f109 (f110 f111 ?v0) ?v1) f1) (=> (= (f6 f121 ?v2) f1) (=> (not (= ?v2 f19)) (=> (forall ((?v3 S2) (?v4 S2)) (= (f6 (f7 f8 (f16 (f122 ?v0 ?v3) ?v4)) (f12 (f13 f14 ?v3) (f12 (f13 f14 ?v4) f19))) f1)) (= (f6 (f7 f8 (f96 ?v1 ?v2)) ?v2) f1)))))))
(assert (forall ((?v0 S52) (?v1 S49) (?v2 S14)) (=> (= (f112 (f113 f114 ?v0) ?v1) f1) (=> (= (f45 f123 ?v2) f1) (=> (not (= ?v2 f25)) (=> (forall ((?v3 S10) (?v4 S10)) (= (f45 (f46 f47 (f124 (f125 ?v0 ?v3) ?v4)) (f21 (f23 f24 ?v3) (f21 (f23 f24 ?v4) f25))) f1)) (= (f45 (f46 f47 (f98 ?v1 ?v2)) ?v2) f1)))))))
(assert (forall ((?v0 S7)) (=> (= (f6 f121 ?v0) f1) (= (f96 f132 ?v0) (f96 f101 ?v0)))))
(assert (forall ((?v0 S50) (?v1 S2) (?v2 S7) (?v3 S2)) (=> (= (f26 (f12 (f105 f106 ?v0) (f12 (f13 f14 ?v1) ?v2)) ?v3) f1) (=> (forall ((?v4 S2) (?v5 S7)) (=> (= (f12 (f13 f14 ?v1) ?v2) (f12 (f13 f14 ?v4) ?v5)) (=> (= (f26 (f12 (f13 (f117 f118 ?v0) ?v4) ?v5) ?v3) f1) (=> (not (= (f6 (f7 f8 ?v4) ?v5) f1)) false)))) false))))
(assert (forall ((?v0 S52) (?v1 S10) (?v2 S14) (?v3 S10)) (=> (= (f20 (f21 (f107 f108 ?v0) (f21 (f23 f24 ?v1) ?v2)) ?v3) f1) (=> (forall ((?v4 S10) (?v5 S14)) (=> (= (f21 (f23 f24 ?v1) ?v2) (f21 (f23 f24 ?v4) ?v5)) (=> (= (f20 (f21 (f23 (f119 f120 ?v0) ?v4) ?v5) ?v3) f1) (=> (not (= (f45 (f46 f47 ?v4) ?v5) f1)) false)))) false))))
(assert (forall ((?v0 S7) (?v1 S50)) (=> (= (f6 f121 ?v0) f1) (=> (not (= ?v0 f19)) (exists ((?v2 S2)) (= (f26 (f12 (f105 f106 ?v1) ?v0) ?v2) f1))))))
(assert (forall ((?v0 S14) (?v1 S52)) (=> (= (f45 f123 ?v0) f1) (=> (not (= ?v0 f25)) (exists ((?v2 S10)) (= (f20 (f21 (f107 f108 ?v1) ?v0) ?v2) f1))))))
(assert (forall ((?v0 S7)) (= (= (f6 f121 ?v0) f1) (or (= ?v0 f19) (exists ((?v1 S7) (?v2 S2)) (and (= ?v0 (f12 (f13 f14 ?v2) ?v1)) (= (f6 f121 ?v1) f1)))))))
(assert (forall ((?v0 S14)) (= (= (f45 f123 ?v0) f1) (or (= ?v0 f25) (exists ((?v1 S14) (?v2 S10)) (and (= ?v0 (f21 (f23 f24 ?v2) ?v1)) (= (f45 f123 ?v1) f1)))))))
(assert (forall ((?v0 S7) (?v1 S6)) (=> (= (f6 f121 ?v0) f1) (=> (= (f6 ?v1 f19) f1) (=> (forall ((?v2 S2) (?v3 S7)) (=> (= (f6 f121 ?v3) f1) (=> (not (= (f6 (f7 f8 ?v2) ?v3) f1)) (=> (= (f6 ?v1 ?v3) f1) (= (f6 ?v1 (f12 (f13 f14 ?v2) ?v3)) f1))))) (= (f6 ?v1 ?v0) f1))))))
(assert (forall ((?v0 S14) (?v1 S25)) (=> (= (f45 f123 ?v0) f1) (=> (= (f45 ?v1 f25) f1) (=> (forall ((?v2 S10) (?v3 S14)) (=> (= (f45 f123 ?v3) f1) (=> (not (= (f45 (f46 f47 ?v2) ?v3) f1)) (=> (= (f45 ?v1 ?v3) f1) (= (f45 ?v1 (f21 (f23 f24 ?v2) ?v3)) f1))))) (= (f45 ?v1 ?v0) f1))))))
(assert (forall ((?v0 S14) (?v1 S52) (?v2 S10)) (=> (= (f45 f123 ?v0) f1) (exists ((?v3 S10)) (= (f20 (f21 (f23 (f119 f120 ?v1) ?v2) ?v0) ?v3) f1)))))
(assert (forall ((?v0 S7) (?v1 S50) (?v2 S2)) (=> (= (f6 f121 ?v0) f1) (exists ((?v3 S2)) (= (f26 (f12 (f13 (f117 f118 ?v1) ?v2) ?v0) ?v3) f1)))))
(assert (forall ((?v0 S14)) (=> (= (f45 f123 ?v0) f1) (exists ((?v1 S46)) (= (f90 f91 ?v1) ?v0)))))
(assert (forall ((?v0 S7)) (=> (= (f6 f121 ?v0) f1) (exists ((?v1 S3)) (= (f130 f131 ?v1) ?v0)))))
(assert (forall ((?v0 S50) (?v1 S7) (?v2 S2)) (= (= (f26 (f12 (f105 f106 ?v0) ?v1) ?v2) f1) (exists ((?v3 S2) (?v4 S7) (?v5 S2)) (and (= ?v1 (f12 (f13 f14 ?v3) ?v4)) (and (= ?v2 ?v5) (and (= (f26 (f12 (f13 (f117 f118 ?v0) ?v3) ?v4) ?v5) f1) (not (= (f6 (f7 f8 ?v3) ?v4) f1)))))))))
(assert (forall ((?v0 S52) (?v1 S14) (?v2 S10)) (= (= (f20 (f21 (f107 f108 ?v0) ?v1) ?v2) f1) (exists ((?v3 S10) (?v4 S14) (?v5 S10)) (and (= ?v1 (f21 (f23 f24 ?v3) ?v4)) (and (= ?v2 ?v5) (and (= (f20 (f21 (f23 (f119 f120 ?v0) ?v3) ?v4) ?v5) f1) (not (= (f45 (f46 f47 ?v3) ?v4) f1)))))))))
(assert (forall ((?v0 S14)) (=> (exists ((?v1 S10)) (and (= (f20 ?v0 ?v1) f1) (forall ((?v2 S10)) (=> (= (f20 ?v0 ?v2) f1) (= ?v2 ?v1))))) (= (f20 ?v0 (f98 f104 ?v0)) f1))))
(assert (forall ((?v0 S7)) (=> (exists ((?v1 S2)) (and (= (f26 ?v0 ?v1) f1) (forall ((?v2 S2)) (=> (= (f26 ?v0 ?v2) f1) (= ?v2 ?v1))))) (= (f26 ?v0 (f96 f103 ?v0)) f1))))
(assert (forall ((?v0 S14) (?v1 S10)) (=> (= (f20 ?v0 ?v1) f1) (=> (forall ((?v2 S10)) (=> (= (f20 ?v0 ?v2) f1) (= ?v2 ?v1))) (= (f20 ?v0 (f98 f104 ?v0)) f1)))))
(assert (forall ((?v0 S7) (?v1 S2)) (=> (= (f26 ?v0 ?v1) f1) (=> (forall ((?v2 S2)) (=> (= (f26 ?v0 ?v2) f1) (= ?v2 ?v1))) (= (f26 ?v0 (f96 f103 ?v0)) f1)))))
(assert (forall ((?v0 S14) (?v1 S10)) (=> (exists ((?v2 S10)) (and (= (f20 ?v0 ?v2) f1) (forall ((?v3 S10)) (=> (= (f20 ?v0 ?v3) f1) (= ?v3 ?v2))))) (=> (= (f20 ?v0 ?v1) f1) (= (f98 f104 ?v0) ?v1)))))
(assert (forall ((?v0 S7) (?v1 S2)) (=> (exists ((?v2 S2)) (and (= (f26 ?v0 ?v2) f1) (forall ((?v3 S2)) (=> (= (f26 ?v0 ?v3) f1) (= ?v3 ?v2))))) (=> (= (f26 ?v0 ?v1) f1) (= (f96 f103 ?v0) ?v1)))))
(assert (forall ((?v0 S50) (?v1 S2) (?v2 S7) (?v3 S2)) (= (= (f26 (f12 (f13 (f117 f118 ?v0) ?v1) ?v2) ?v3) f1) (or (and (= ?v2 f19) (= ?v3 ?v1)) (exists ((?v4 S2) (?v5 S7) (?v6 S2)) (and (= ?v2 (f12 (f13 f14 ?v4) ?v5)) (and (= ?v3 (f16 (f122 ?v0 ?v4) ?v6)) (and (not (= (f6 (f7 f8 ?v4) ?v5) f1)) (= (f26 (f12 (f13 (f117 f118 ?v0) ?v1) ?v5) ?v6) f1)))))))))
(assert (forall ((?v0 S52) (?v1 S10) (?v2 S14) (?v3 S10)) (= (= (f20 (f21 (f23 (f119 f120 ?v0) ?v1) ?v2) ?v3) f1) (or (and (= ?v2 f25) (= ?v3 ?v1)) (exists ((?v4 S10) (?v5 S14) (?v6 S10)) (and (= ?v2 (f21 (f23 f24 ?v4) ?v5)) (and (= ?v3 (f124 (f125 ?v0 ?v4) ?v6)) (and (not (= (f45 (f46 f47 ?v4) ?v5) f1)) (= (f20 (f21 (f23 (f119 f120 ?v0) ?v1) ?v5) ?v6) f1)))))))))
(assert (forall ((?v0 S50) (?v1 S48) (?v2 S7) (?v3 S2)) (=> (= (f109 (f110 f133 ?v0) ?v1) f1) (=> (= (f6 f121 ?v2) f1) (=> (not (= ?v2 f19)) (= (f96 ?v1 (f12 (f13 f14 ?v3) ?v2)) (f16 (f122 ?v0 ?v3) (f96 ?v1 ?v2))))))))
(assert (forall ((?v0 S52) (?v1 S49) (?v2 S14) (?v3 S10)) (=> (= (f112 (f113 f134 ?v0) ?v1) f1) (=> (= (f45 f123 ?v2) f1) (=> (not (= ?v2 f25)) (= (f98 ?v1 (f21 (f23 f24 ?v3) ?v2)) (f124 (f125 ?v0 ?v3) (f98 ?v1 ?v2))))))))
(assert (forall ((?v0 S7) (?v1 S6)) (=> (= (f6 f121 ?v0) f1) (=> (not (= ?v0 f19)) (=> (forall ((?v2 S2)) (= (f6 ?v1 (f12 (f13 f14 ?v2) f19)) f1)) (=> (forall ((?v2 S2) (?v3 S7)) (=> (= (f6 f121 ?v3) f1) (=> (not (= ?v3 f19)) (=> (not (= (f6 (f7 f8 ?v2) ?v3) f1)) (=> (= (f6 ?v1 ?v3) f1) (= (f6 ?v1 (f12 (f13 f14 ?v2) ?v3)) f1)))))) (= (f6 ?v1 ?v0) f1)))))))
(assert (forall ((?v0 S14) (?v1 S25)) (=> (= (f45 f123 ?v0) f1) (=> (not (= ?v0 f25)) (=> (forall ((?v2 S10)) (= (f45 ?v1 (f21 (f23 f24 ?v2) f25)) f1)) (=> (forall ((?v2 S10) (?v3 S14)) (=> (= (f45 f123 ?v3) f1) (=> (not (= ?v3 f25)) (=> (not (= (f45 (f46 f47 ?v2) ?v3) f1)) (=> (= (f45 ?v1 ?v3) f1) (= (f45 ?v1 (f21 (f23 f24 ?v2) ?v3)) f1)))))) (= (f45 ?v1 ?v0) f1)))))))
(assert (forall ((?v0 S50) (?v1 S48) (?v2 S2)) (=> (= (f109 (f110 f133 ?v0) ?v1) f1) (= (f16 (f122 ?v0 ?v2) ?v2) ?v2))))
(assert (forall ((?v0 S52) (?v1 S49) (?v2 S10)) (=> (= (f112 (f113 f134 ?v0) ?v1) f1) (= (f124 (f125 ?v0 ?v2) ?v2) ?v2))))
(assert (forall ((?v0 S52) (?v1 S49) (?v2 S14) (?v3 S10)) (let ((?v_0 (f98 ?v1 ?v2))) (=> (= (f112 (f113 f134 ?v0) ?v1) f1) (=> (= (f45 f123 ?v2) f1) (=> (= (f45 (f46 f47 ?v3) ?v2) f1) (= (f124 (f125 ?v0 ?v3) ?v_0) ?v_0)))))))
(assert (forall ((?v0 S50) (?v1 S48) (?v2 S7) (?v3 S2)) (let ((?v_0 (f96 ?v1 ?v2))) (=> (= (f109 (f110 f133 ?v0) ?v1) f1) (=> (= (f6 f121 ?v2) f1) (=> (= (f6 (f7 f8 ?v3) ?v2) f1) (= (f16 (f122 ?v0 ?v3) ?v_0) ?v_0)))))))
(assert (forall ((?v0 S2) (?v1 S3)) (= (f130 f131 (f135 (f136 (f137 f138 f81) ?v0) ?v1)) (f12 (f13 f14 ?v0) (f130 f131 ?v1)))))
(assert (forall ((?v0 S52) (?v1 S49) (?v2 S14)) (=> (= (f112 (f113 f139 ?v0) ?v1) f1) (=> (= (f45 f123 ?v2) f1) (= (f98 ?v1 ?v2) (f98 (f126 f127 ?v0) ?v2))))))
(assert (forall ((?v0 S50) (?v1 S48) (?v2 S7)) (=> (= (f109 (f110 f140 ?v0) ?v1) f1) (=> (= (f6 f121 ?v2) f1) (= (f96 ?v1 ?v2) (f96 (f128 f129 ?v0) ?v2))))))
(assert (forall ((?v0 S50) (?v1 S48) (?v2 S7) (?v3 S2)) (let ((?v_0 (f12 (f55 f141 ?v2) (f12 (f13 f14 ?v3) f19)))) (=> (= (f109 (f110 f111 ?v0) ?v1) f1) (=> (= (f6 f121 ?v2) f1) (=> (= (f6 (f7 f8 ?v3) ?v2) f1) (= (f96 ?v1 ?v2) (ite (= ?v_0 f19) ?v3 (f16 (f122 ?v0 ?v3) (f96 ?v1 ?v_0))))))))))
(assert (forall ((?v0 S52) (?v1 S49) (?v2 S14) (?v3 S10)) (let ((?v_0 (f21 (f53 f142 ?v2) (f21 (f23 f24 ?v3) f25)))) (=> (= (f112 (f113 f114 ?v0) ?v1) f1) (=> (= (f45 f123 ?v2) f1) (=> (= (f45 (f46 f47 ?v3) ?v2) f1) (= (f98 ?v1 ?v2) (ite (= ?v_0 f25) ?v3 (f124 (f125 ?v0 ?v3) (f98 ?v1 ?v_0))))))))))
(assert (forall ((?v0 S50) (?v1 S48) (?v2 S7) (?v3 S2)) (let ((?v_0 (f13 f14 ?v3))) (let ((?v_1 (f12 (f55 f141 ?v2) (f12 ?v_0 f19)))) (=> (= (f109 (f110 f111 ?v0) ?v1) f1) (=> (= (f6 f121 ?v2) f1) (= (f96 ?v1 (f12 ?v_0 ?v2)) (ite (= ?v_1 f19) ?v3 (f16 (f122 ?v0 ?v3) (f96 ?v1 ?v_1))))))))))
(assert (forall ((?v0 S52) (?v1 S49) (?v2 S14) (?v3 S10)) (let ((?v_0 (f23 f24 ?v3))) (let ((?v_1 (f21 (f53 f142 ?v2) (f21 ?v_0 f25)))) (=> (= (f112 (f113 f114 ?v0) ?v1) f1) (=> (= (f45 f123 ?v2) f1) (= (f98 ?v1 (f21 ?v_0 ?v2)) (ite (= ?v_1 f25) ?v3 (f124 (f125 ?v0 ?v3) (f98 ?v1 ?v_1))))))))))
(assert (forall ((?v0 S10) (?v1 S14) (?v2 S14)) (let ((?v_0 (f46 f47 ?v0))) (=> (= (f45 ?v_0 ?v1) f1) (=> (not (= (f45 ?v_0 ?v2) f1)) (= (f45 ?v_0 (f21 (f53 f142 ?v1) ?v2)) f1))))))
(assert (forall ((?v0 S2) (?v1 S7) (?v2 S7)) (let ((?v_0 (f7 f8 ?v0))) (=> (= (f6 ?v_0 ?v1) f1) (=> (not (= (f6 ?v_0 ?v2) f1)) (= (f6 ?v_0 (f12 (f55 f141 ?v1) ?v2)) f1))))))
(assert (forall ((?v0 S10) (?v1 S14) (?v2 S14)) (let ((?v_0 (f46 f47 ?v0))) (=> (= (f45 ?v_0 (f21 (f53 f142 ?v1) ?v2)) f1) (=> (=> (= (f45 ?v_0 ?v1) f1) (=> (not (= (f45 ?v_0 ?v2) f1)) false)) false)))))
(assert (forall ((?v0 S2) (?v1 S7) (?v2 S7)) (let ((?v_0 (f7 f8 ?v0))) (=> (= (f6 ?v_0 (f12 (f55 f141 ?v1) ?v2)) f1) (=> (=> (= (f6 ?v_0 ?v1) f1) (=> (not (= (f6 ?v_0 ?v2) f1)) false)) false)))))
(assert (forall ((?v0 S14) (?v1 S14)) (=> (= (f45 f123 ?v0) f1) (= (f45 f123 (f21 (f53 f142 ?v0) ?v1)) f1))))
(assert (forall ((?v0 S7) (?v1 S7)) (=> (= (f6 f121 ?v0) f1) (= (f6 f121 (f12 (f55 f141 ?v0) ?v1)) f1))))
(assert (forall ((?v0 S7)) (= (f12 (f55 f141 ?v0) ?v0) f19)))
(assert (forall ((?v0 S14)) (= (f21 (f53 f142 ?v0) ?v0) f25)))
(assert (forall ((?v0 S7)) (= (f12 (f55 f141 ?v0) f19) ?v0)))
(assert (forall ((?v0 S14)) (= (f21 (f53 f142 ?v0) f25) ?v0)))
(assert (forall ((?v0 S7)) (= (f12 (f55 f141 f19) ?v0) f19)))
(assert (forall ((?v0 S14)) (= (f21 (f53 f142 f25) ?v0) f25)))
(assert (forall ((?v0 S14) (?v1 S14)) (=> (= (f45 f123 ?v0) f1) (= (= (f45 f123 (f21 (f53 f142 ?v1) ?v0)) f1) (= (f45 f123 ?v1) f1)))))
(assert (forall ((?v0 S7) (?v1 S7)) (=> (= (f6 f121 ?v0) f1) (= (= (f6 f121 (f12 (f55 f141 ?v1) ?v0)) f1) (= (f6 f121 ?v1) f1)))))
(assert (forall ((?v0 S2) (?v1 S7) (?v2 S7)) (=> (= (f6 (f7 f8 ?v0) ?v1) f1) (= (f12 (f55 f141 (f12 (f13 f14 ?v0) ?v2)) ?v1) (f12 (f55 f141 ?v2) ?v1)))))
(assert (forall ((?v0 S10) (?v1 S14) (?v2 S14)) (=> (= (f45 (f46 f47 ?v0) ?v1) f1) (= (f21 (f53 f142 (f21 (f23 f24 ?v0) ?v2)) ?v1) (f21 (f53 f142 ?v2) ?v1)))))
(assert (forall ((?v0 S2) (?v1 S7) (?v2 S7)) (let ((?v_0 (f13 f14 ?v0)) (?v_1 (f12 (f55 f141 ?v1) ?v2))) (= (f12 (f55 f141 (f12 ?v_0 ?v1)) ?v2) (ite (= (f6 (f7 f8 ?v0) ?v2) f1) ?v_1 (f12 ?v_0 ?v_1))))))
(assert (forall ((?v0 S10) (?v1 S14) (?v2 S14)) (let ((?v_0 (f23 f24 ?v0)) (?v_1 (f21 (f53 f142 ?v1) ?v2))) (= (f21 (f53 f142 (f21 ?v_0 ?v1)) ?v2) (ite (= (f45 (f46 f47 ?v0) ?v2) f1) ?v_1 (f21 ?v_0 ?v_1))))))
(check-sat)
(exit)
